

units		metal

pair_style      deepmd compress.pb
pair_coeff  	* *   
